104633
0,9,28,63,72,44,45,53,70,65,35,25,79,61,69,13,75,66,19,8,76,57,73,31,39,81,74,10,15,32,26,6,16,55,50,37,34,29,1,71,80,59,46,48,33,56,42,2,11,22,54,41,24,68,14,60,5,78,27,7,82,77,40,51,38,62,3,49,64,30,23,47,18,52,58,67,43,21,4,20,12,17,36,0